Timesteps: 1
s UNSATISFIABLE
real 0.32
user 0.04
sys 0.01
Timesteps: 2
s UNSATISFIABLE
real 0.37
user 0.08
sys 0.01
Timesteps: 3
s UNSATISFIABLE
real 0.48
user 0.21
sys 0.03
Timesteps: 4
s UNSATISFIABLE
real 0.91
user 0.64
sys 0.03
Timesteps: 5
s UNSATISFIABLE
real 2.15
user 1.77
sys 0.03
Timesteps: 6
s UNSATISFIABLE
real 9.06
user 8.14
sys 0.06
Timesteps: 7
s UNSATISFIABLE
real 30.84
user 29.69
sys 0.07
Timesteps: 8
s UNSATISFIABLE
real 39.22
user 37.82
sys 0.09
Timesteps: 9
s UNSATISFIABLE
real 44.10
user 42.63
sys 0.10
Timesteps: 10
s UNSATISFIABLE
real 48.56
user 47.64
sys 0.13
Timesteps: 11
s UNSATISFIABLE
real 109.76
user 107.67
sys 0.23
Timesteps: 12
s UNSATISFIABLE
real 196.23
user 194.53
sys 0.28
Timesteps: 13
s UNSATISFIABLE
real 558.03
user 553.63
sys 0.57
Timesteps: 14
s UNSATISFIABLE
real 1915.95
user 1906.55
sys 1.23
Timesteps: 15
